DATASET = "thpack4";
INSTANCE = "043";

WIDTH = 233;
HEIGHT = 220;
LENGTH = 587;

NO_OF_SHAPES = 10;
size = [|
  82,80,71 |
  66,37,27 |
  77,76,31 |
  100,56,38 |
  93,86,67 |
  89,76,30 |
  98,90,67 |
  87,52,42 |
  53,42,35 |
  116,53,36 |
|];

verticality = [|
  1,1,1 |
  0,1,1 |
  0,0,1 |
  0,1,1 |
  1,1,1 |
  0,0,1 |
  1,1,1 |
  0,1,1 |
  1,1,1 |
  0,1,1 |
|];

box_count = [
  11,
  4,
  4,
  8,
  12,
  6,
  16,
  11,
  7,
  11,
];
